nNurses = 197;
hours = 74;
demand = [45 0 34 15 8 21 13 34 10 25 24 26 35 36 21 35 42 49 13 33 43 14 24 46 5 43 22 32 40 27 28 35 42 32 32 1 9 45 9 22 43 49 1 39 4 44 46 16 26 2 14 13 8 29 0 2 3 28 18 40 35 17 33 18 36 17 28 24 0 16 9 5 43 6];
minHours = 18;
maxHours = 21;
maxConsec = 15;
maxPresence = 32;